NAME : LRC2_6_10
TYPE : PDPTW
DIMENSION : 150
EDGE_WEIGHT_TYPE : EXACT_2D
NODE_COORD_SECTION
1 1 0
2 150 0
3 0 0
4 -17 3227
5 0 2
6 90 690
7 3 199
8 2404 10
9 61 84
10 10 0
11 103 20
12 0 135
13 10 49
14 564 7
15 2340 2940
16 8 230
17 1882 10
18 55 68
19 10 0
20 180 -40
21 244 0
22 -20 985
23 0 12
24 515 1115
25 13 257
26 1012 10
27 57 155
28 10 416
29 26 25
30 0 57
31 10 193
32 156 17
33 668 1268
34 18 89
35 1372 10
36 84 231
37 10 192
38 240 -11
39 558 0
40 20 521
41 246 22
42 314 914
43 23 180
44 653 10
45 240 73
46 10 0
47 265 -10
48 74 0
49 -20 121
50 0 27
51 456 1056
52 28 160
53 643 10
54 289 130
55 10 212
56 255 -30
57 592 0
58 -33 1168
59 0 32
60 2088 2688
61 33 115
62 657 10
63 250 228
64 10 237
65 89 -10
66 302 0
67 20 82
68 573 37
69 33 633
70 38 159
71 901 10
72 47 277
73 10 0
74 269 -23
75 491 0
76 30 653
77 591 42
78 287 887
79 43 74
80 3578 10
81 140 140
82 10 0
83 241 -10
84 108 0
85 20 98
86 140 47
87 67 667
88 48 136
89 2737 10
90 250 124
91 10 0
92 299 24
93 0 534
94 10 611
95 590 52
96 173 773
97 53 212
98 1076 10
99 259 59
100 10 441
101 104 21
102 0 89
103 -10 418
104 0 57
105 2278 2878
106 58 57
107 1203 10
108 232 121
109 10 0
110 132 10
111 0 432
112 -10 1243
113 0 62
114 351 951
115 63 143
116 639 10
117 248 41
118 10 150
119 263 -10
120 540 0
121 20 115
122 335 67
123 213 813
124 68 259
125 1384 10
126 38 139
127 10 222
128 41 -20
129 269 0
130 -20 303
131 0 72
132 626 1226
133 73 102
134 3734 10
135 43 286
136 10 0
137 160 20
138 0 78
139 -20 198
140 0 77
141 572 1172
142 78 88
143 2896 10
144 122 127
145 10 0
146 63 -20
147 553 0
148 -20 97
149 0 82
150 2322 2922
PICKUP_AND_DELIVERY_SECTION
1 0 0 0 0 0 0
2 0 0 0 0 4823 0
3 0 0 0 0 0 125
4 0 0 0 0 10 10
5 0 0 0 0 107 107
6 0 0 0 0 488 488
7 0 0 0 0 -10 -10
8 0 0 0 0 0 0
9 0 0 0 0 1094 1094
10 0 0 0 0 5 5
11 0 0 0 0 653 653
12 0 0 0 0 143 143
13 0 0 0 0 10 10
14 0 0 0 0 141 141
15 0 0 0 0 159 159
16 0 0 0 0 21 21
17 0 0 0 0 185 0
18 0 0 0 0 330 330
19 0 0 0 0 10 10
20 0 0 0 0 1848 1848
21 0 0 0 0 159 159
22 0 0 0 0 10 10
23 0 0 0 0 4 4
24 0 0 0 0 175 175
25 0 0 0 0 -19 -19
26 0 0 0 0 0 0
27 0 0 0 0 167 167
28 0 0 0 0 15 0
29 0 0 0 0 2619 2619
30 0 0 0 0 231 231
31 0 0 0 0 10 10
32 0 0 0 0 132 132
33 0 0 0 0 0 0
34 0 0 0 0 -2 -2
35 0 0 0 0 0 0
36 0 0 0 0 1938 1938
37 0 0 0 0 20 0
38 0 0 0 0 2461 2461
39 0 0 0 0 110 110
40 0 0 0 0 10 10
41 0 0 0 0 74 74
42 0 0 0 0 0 0
43 0 0 0 0 19 19
44 0 0 0 0 13 0
45 0 0 0 0 217 217
46 0 0 0 0 25 25
47 0 0 0 0 1015 1015
48 0 0 0 0 134 134
49 0 0 0 0 10 10
50 0 0 0 0 59 59
51 0 0 0 0 0 0
52 0 0 0 0 10 10
53 0 0 0 0 295 0
54 0 0 0 0 1078 1078
55 0 0 0 0 30 0
56 0 0 0 0 1322 1322
57 0 0 0 0 234 234
58 0 0 0 0 10 10
59 0 0 0 0 208 208
60 0 0 0 0 0 0
61 0 0 0 0 10 10
62 0 0 0 0 152 0
63 0 0 0 0 2867 2867
64 0 0 0 0 35 0
65 0 0 0 0 3665 3665
66 0 0 0 0 105 105
67 0 0 0 0 10 10
68 0 0 0 0 183 183
69 0 0 0 0 0 0
70 0 0 0 0 -20 -20
71 0 0 0 0 0 0
72 0 0 0 0 354 354
73 0 0 0 0 40 40
74 0 0 0 0 2143 2143
75 0 0 0 0 212 212
76 0 0 0 0 10 10
77 0 0 0 0 149 149
78 0 0 0 0 516 516
79 0 0 0 0 -7 -7
80 0 0 0 0 0 0
81 0 0 0 0 14 14
82 0 0 0 0 45 45
83 0 0 0 0 3044 3044
84 0 0 0 0 222 222
85 0 0 0 0 10 10
86 0 0 0 0 124 124
87 0 0 0 0 382 382
88 0 0 0 0 -20 -20
89 0 0 0 0 0 0
90 0 0 0 0 292 292
91 0 0 0 0 50 50
92 0 0 0 0 1866 1866
93 0 0 0 0 258 258
94 0 0 0 0 10 10
95 0 0 0 0 47 47
96 0 0 0 0 0 0
97 0 0 0 0 20 20
98 0 0 0 0 407 0
99 0 0 0 0 504 504
100 0 0 0 0 55 0
101 0 0 0 0 646 646
102 0 0 0 0 77 77
103 0 0 0 0 10 10
104 0 0 0 0 45 45
105 0 0 0 0 15 15
106 0 0 0 0 23 23
107 0 0 0 0 563 0
108 0 0 0 0 2069 2069
109 0 0 0 0 60 60
110 0 0 0 0 969 969
111 0 0 0 0 18 18
112 0 0 0 0 10 10
113 0 0 0 0 113 113
114 0 0 0 0 0 0
115 0 0 0 0 20 20
116 0 0 0 0 276 0
117 0 0 0 0 1636 1636
118 0 0 0 0 65 0
119 0 0 0 0 1118 1118
120 0 0 0 0 109 109
121 0 0 0 0 10 10
122 0 0 0 0 71 71
123 0 0 0 0 555 555
124 0 0 0 0 10 10
125 0 0 0 0 447 0
126 0 0 0 0 1108 1108
127 0 0 0 0 70 0
128 0 0 0 0 1737 1737
129 0 0 0 0 255 255
130 0 0 0 0 10 10
131 0 0 0 0 122 122
132 0 0 0 0 450 450
133 0 0 0 0 -32 -32
134 0 0 0 0 0 0
135 0 0 0 0 433 433
136 0 0 0 0 75 75
137 0 0 0 0 703 703
138 0 0 0 0 172 172
139 0 0 0 0 10 10
140 0 0 0 0 22 22
141 0 0 0 0 0 0
142 0 0 0 0 -20 -20
143 0 0 0 0 0 0
144 0 0 0 0 0 36
145 0 0 0 0 80 80
146 0 0 0 0 993 993
147 0 0 0 0 53 53
148 0 0 0 0 10 10
149 0 0 0 0 281 281
150 0 0 0 0 0 0
DEPOT_SECTION
1 
-1
EOF
